p cnf 165 825
1 21 0
41 42 43 44 45 0
-41 -42 0
-41 -43 0
-41 -44 0
-41 -45 0
-42 -43 0
-42 -44 0
-42 -45 0
-43 -44 0
-43 -45 0
-44 -45 0
-1 -41 46 0
-1 -46 41 0
-1 -42 47 0
-1 -47 42 0
-1 -43 48 0
-1 -48 43 0
-1 -44 49 0
-1 -49 44 0
-1 -45 50 0
-1 -50 45 0
-21 -41 66 0
-21 -66 41 0
-21 -42 67 0
-21 -67 42 0
-21 -43 68 0
-21 -68 43 0
-21 -44 69 0
-21 -69 44 0
-21 -45 70 0
-21 -70 45 0
21 0
1 0
2 1 25 0
46 47 48 49 50 0
-46 -47 0
-46 -48 0
-46 -49 0
-46 -50 0
-47 -48 0
-47 -49 0
-47 -50 0
-48 -49 0
-48 -50 0
-49 -50 0
-2 -46 51 0
-2 -51 46 0
-2 -47 52 0
-2 -52 47 0
-2 -48 53 0
-2 -53 48 0
-2 -49 54 0
-2 -54 49 0
-2 -50 55 0
-2 -55 50 0
-25 -46 71 0
-25 -71 46 0
-25 -47 72 0
-25 -72 47 0
-25 -48 73 0
-25 -73 48 0
-25 -49 74 0
-25 -74 49 0
-25 -50 75 0
-25 -75 50 0
-1 2 25 0
-2 1 25 0
-25 1 2 0
-1 -2 -25 0
3 2 29 0
51 52 53 54 55 0
-51 -52 0
-51 -53 0
-51 -54 0
-51 -55 0
-52 -53 0
-52 -54 0
-52 -55 0
-53 -54 0
-53 -55 0
-54 -55 0
-3 -51 56 0
-3 -56 51 0
-3 -52 57 0
-3 -57 52 0
-3 -53 58 0
-3 -58 53 0
-3 -54 59 0
-3 -59 54 0
-3 -55 60 0
-3 -60 55 0
-29 -51 76 0
-29 -76 51 0
-29 -52 77 0
-29 -77 52 0
-29 -53 78 0
-29 -78 53 0
-29 -54 79 0
-29 -79 54 0
-29 -55 80 0
-29 -80 55 0
54 0
-2 -3 0
-2 -29 0
-3 -29 0
4 3 33 0
56 57 58 59 60 0
-56 -57 0
-56 -58 0
-56 -59 0
-56 -60 0
-57 -58 0
-57 -59 0
-57 -60 0
-58 -59 0
-58 -60 0
-59 -60 0
-4 -56 61 0
-4 -61 56 0
-4 -57 62 0
-4 -62 57 0
-4 -58 63 0
-4 -63 58 0
-4 -59 64 0
-4 -64 59 0
-4 -60 65 0
-4 -65 60 0
-33 -56 81 0
-33 -81 56 0
-33 -57 82 0
-33 -82 57 0
-33 -58 83 0
-33 -83 58 0
-33 -59 84 0
-33 -84 59 0
-33 -60 85 0
-33 -85 60 0
58 0
-3 -4 0
-3 -33 0
-4 -33 0
4 37 0
61 62 63 64 65 0
-61 -62 0
-61 -63 0
-61 -64 0
-61 -65 0
-62 -63 0
-62 -64 0
-62 -65 0
-63 -64 0
-63 -65 0
-64 -65 0
-37 -61 86 0
-37 -86 61 0
-37 -62 87 0
-37 -87 62 0
-37 -63 88 0
-37 -88 63 0
-37 -64 89 0
-37 -89 64 0
-37 -65 90 0
-37 -90 65 0
63 0
-37 -4 0
5 21 22 0
66 67 68 69 70 0
-66 -67 0
-66 -68 0
-66 -69 0
-66 -70 0
-67 -68 0
-67 -69 0
-67 -70 0
-68 -69 0
-68 -70 0
-69 -70 0
-5 -66 71 0
-5 -71 66 0
-5 -67 72 0
-5 -72 67 0
-5 -68 73 0
-5 -73 68 0
-5 -69 74 0
-5 -74 69 0
-5 -70 75 0
-5 -75 70 0
-22 -66 91 0
-22 -91 66 0
-22 -67 92 0
-22 -92 67 0
-22 -68 93 0
-22 -93 68 0
-22 -69 94 0
-22 -94 69 0
-22 -70 95 0
-22 -95 70 0
66 0
-5 -21 0
-5 -22 0
-21 -22 0
5 6 25 26 0
71 72 73 74 75 0
-71 -72 0
-71 -73 0
-71 -74 0
-71 -75 0
-72 -73 0
-72 -74 0
-72 -75 0
-73 -74 0
-73 -75 0
-74 -75 0
-6 -71 76 0
-6 -76 71 0
-6 -72 77 0
-6 -77 72 0
-6 -73 78 0
-6 -78 73 0
-6 -74 79 0
-6 -79 74 0
-6 -75 80 0
-6 -80 75 0
-26 -71 96 0
-26 -96 71 0
-26 -72 97 0
-26 -97 72 0
-26 -73 98 0
-26 -98 73 0
-26 -74 99 0
-26 -99 74 0
-26 -75 100 0
-26 -100 75 0
5 6 25 0
5 6 26 0
5 25 26 0
6 25 26 0
-5 -6 -25 0
-5 -6 -26 0
-5 -25 -26 0
-6 -25 -26 0
6 7 29 30 0
76 77 78 79 80 0
-76 -77 0
-76 -78 0
-76 -79 0
-76 -80 0
-77 -78 0
-77 -79 0
-77 -80 0
-78 -79 0
-78 -80 0
-79 -80 0
-7 -76 81 0
-7 -81 76 0
-7 -77 82 0
-7 -82 77 0
-7 -78 83 0
-7 -83 78 0
-7 -79 84 0
-7 -84 79 0
-7 -80 85 0
-7 -85 80 0
-30 -76 101 0
-30 -101 76 0
-30 -77 102 0
-30 -102 77 0
-30 -78 103 0
-30 -103 78 0
-30 -79 104 0
-30 -104 79 0
-30 -80 105 0
-30 -105 80 0
80 0
-6 -7 0
-6 -29 0
-6 -30 0
-7 -29 0
-7 -30 0
-29 -30 0
7 8 33 34 0
81 82 83 84 85 0
-81 -82 0
-81 -83 0
-81 -84 0
-81 -85 0
-82 -83 0
-82 -84 0
-82 -85 0
-83 -84 0
-83 -85 0
-84 -85 0
-8 -81 86 0
-8 -86 81 0
-8 -82 87 0
-8 -87 82 0
-8 -83 88 0
-8 -88 83 0
-8 -84 89 0
-8 -89 84 0
-8 -85 90 0
-8 -90 85 0
-34 -81 106 0
-34 -106 81 0
-34 -82 107 0
-34 -107 82 0
-34 -83 108 0
-34 -108 83 0
-34 -84 109 0
-34 -109 84 0
-34 -85 110 0
-34 -110 85 0
7 8 33 0
7 8 34 0
7 33 34 0
8 33 34 0
-7 -8 -33 0
-7 -8 -34 0
-7 -33 -34 0
-8 -33 -34 0
8 37 38 0
86 87 88 89 90 0
-86 -87 0
-86 -88 0
-86 -89 0
-86 -90 0
-87 -88 0
-87 -89 0
-87 -90 0
-88 -89 0
-88 -90 0
-89 -90 0
-38 -86 111 0
-38 -111 86 0
-38 -87 112 0
-38 -112 87 0
-38 -88 113 0
-38 -113 88 0
-38 -89 114 0
-38 -114 89 0
-38 -90 115 0
-38 -115 90 0
-8 37 38 0
-37 8 38 0
-38 8 37 0
-8 -37 -38 0
9 22 23 0
91 92 93 94 95 0
-91 -92 0
-91 -93 0
-91 -94 0
-91 -95 0
-92 -93 0
-92 -94 0
-92 -95 0
-93 -94 0
-93 -95 0
-94 -95 0
-9 -91 96 0
-9 -96 91 0
-9 -92 97 0
-9 -97 92 0
-9 -93 98 0
-9 -98 93 0
-9 -94 99 0
-9 -99 94 0
-9 -95 100 0
-9 -100 95 0
-23 -91 116 0
-23 -116 91 0
-23 -92 117 0
-23 -117 92 0
-23 -93 118 0
-23 -118 93 0
-23 -94 119 0
-23 -119 94 0
-23 -95 120 0
-23 -120 95 0
-9 22 23 0
-22 9 23 0
-23 9 22 0
-9 -22 -23 0
9 10 26 27 0
96 97 98 99 100 0
-96 -97 0
-96 -98 0
-96 -99 0
-96 -100 0
-97 -98 0
-97 -99 0
-97 -100 0
-98 -99 0
-98 -100 0
-99 -100 0
-10 -96 101 0
-10 -101 96 0
-10 -97 102 0
-10 -102 97 0
-10 -98 103 0
-10 -103 98 0
-10 -99 104 0
-10 -104 99 0
-10 -100 105 0
-10 -105 100 0
-27 -96 121 0
-27 -121 96 0
-27 -97 122 0
-27 -122 97 0
-27 -98 123 0
-27 -123 98 0
-27 -99 124 0
-27 -124 99 0
-27 -100 125 0
-27 -125 100 0
99 0
-9 -10 0
-9 -26 0
-9 -27 0
-10 -26 0
-10 -27 0
-26 -27 0
10 11 30 31 0
101 102 103 104 105 0
-101 -102 0
-101 -103 0
-101 -104 0
-101 -105 0
-102 -103 0
-102 -104 0
-102 -105 0
-103 -104 0
-103 -105 0
-104 -105 0
-11 -101 106 0
-11 -106 101 0
-11 -102 107 0
-11 -107 102 0
-11 -103 108 0
-11 -108 103 0
-11 -104 109 0
-11 -109 104 0
-11 -105 110 0
-11 -110 105 0
-31 -101 126 0
-31 -126 101 0
-31 -102 127 0
-31 -127 102 0
-31 -103 128 0
-31 -128 103 0
-31 -104 129 0
-31 -129 104 0
-31 -105 130 0
-31 -130 105 0
102 0
-10 -11 0
-10 -30 0
-10 -31 0
-11 -30 0
-11 -31 0
-30 -31 0
11 12 34 35 0
106 107 108 109 110 0
-106 -107 0
-106 -108 0
-106 -109 0
-106 -110 0
-107 -108 0
-107 -109 0
-107 -110 0
-108 -109 0
-108 -110 0
-109 -110 0
-12 -106 111 0
-12 -111 106 0
-12 -107 112 0
-12 -112 107 0
-12 -108 113 0
-12 -113 108 0
-12 -109 114 0
-12 -114 109 0
-12 -110 115 0
-12 -115 110 0
-35 -106 131 0
-35 -131 106 0
-35 -107 132 0
-35 -132 107 0
-35 -108 133 0
-35 -133 108 0
-35 -109 134 0
-35 -134 109 0
-35 -110 135 0
-35 -135 110 0
11 12 34 0
11 12 35 0
11 34 35 0
12 34 35 0
-11 -12 -34 0
-11 -12 -35 0
-11 -34 -35 0
-12 -34 -35 0
12 38 39 0
111 112 113 114 115 0
-111 -112 0
-111 -113 0
-111 -114 0
-111 -115 0
-112 -113 0
-112 -114 0
-112 -115 0
-113 -114 0
-113 -115 0
-114 -115 0
-39 -111 136 0
-39 -136 111 0
-39 -112 137 0
-39 -137 112 0
-39 -113 138 0
-39 -138 113 0
-39 -114 139 0
-39 -139 114 0
-39 -115 140 0
-39 -140 115 0
-12 38 39 0
-38 12 39 0
-39 12 38 0
-12 -38 -39 0
13 23 24 0
116 117 118 119 120 0
-116 -117 0
-116 -118 0
-116 -119 0
-116 -120 0
-117 -118 0
-117 -119 0
-117 -120 0
-118 -119 0
-118 -120 0
-119 -120 0
-13 -116 121 0
-13 -121 116 0
-13 -117 122 0
-13 -122 117 0
-13 -118 123 0
-13 -123 118 0
-13 -119 124 0
-13 -124 119 0
-13 -120 125 0
-13 -125 120 0
-24 -116 141 0
-24 -141 116 0
-24 -117 142 0
-24 -142 117 0
-24 -118 143 0
-24 -143 118 0
-24 -119 144 0
-24 -144 119 0
-24 -120 145 0
-24 -145 120 0
-13 23 24 0
-23 13 24 0
-24 13 23 0
-13 -23 -24 0
13 14 27 28 0
121 122 123 124 125 0
-121 -122 0
-121 -123 0
-121 -124 0
-121 -125 0
-122 -123 0
-122 -124 0
-122 -125 0
-123 -124 0
-123 -125 0
-124 -125 0
-14 -121 126 0
-14 -126 121 0
-14 -122 127 0
-14 -127 122 0
-14 -123 128 0
-14 -128 123 0
-14 -124 129 0
-14 -129 124 0
-14 -125 130 0
-14 -130 125 0
-28 -121 146 0
-28 -146 121 0
-28 -122 147 0
-28 -147 122 0
-28 -123 148 0
-28 -148 123 0
-28 -124 149 0
-28 -149 124 0
-28 -125 150 0
-28 -150 125 0
13 14 27 0
13 14 28 0
13 27 28 0
14 27 28 0
-13 -14 -27 0
-13 -14 -28 0
-13 -27 -28 0
-14 -27 -28 0
14 15 31 32 0
126 127 128 129 130 0
-126 -127 0
-126 -128 0
-126 -129 0
-126 -130 0
-127 -128 0
-127 -129 0
-127 -130 0
-128 -129 0
-128 -130 0
-129 -130 0
-15 -126 131 0
-15 -131 126 0
-15 -127 132 0
-15 -132 127 0
-15 -128 133 0
-15 -133 128 0
-15 -129 134 0
-15 -134 129 0
-15 -130 135 0
-15 -135 130 0
-32 -126 151 0
-32 -151 126 0
-32 -127 152 0
-32 -152 127 0
-32 -128 153 0
-32 -153 128 0
-32 -129 154 0
-32 -154 129 0
-32 -130 155 0
-32 -155 130 0
14 15 31 0
14 15 32 0
14 31 32 0
15 31 32 0
-14 -15 -31 0
-14 -15 -32 0
-14 -31 -32 0
-15 -31 -32 0
15 16 35 36 0
131 132 133 134 135 0
-131 -132 0
-131 -133 0
-131 -134 0
-131 -135 0
-132 -133 0
-132 -134 0
-132 -135 0
-133 -134 0
-133 -135 0
-134 -135 0
-16 -131 136 0
-16 -136 131 0
-16 -132 137 0
-16 -137 132 0
-16 -133 138 0
-16 -138 133 0
-16 -134 139 0
-16 -139 134 0
-16 -135 140 0
-16 -140 135 0
-36 -131 156 0
-36 -156 131 0
-36 -132 157 0
-36 -157 132 0
-36 -133 158 0
-36 -158 133 0
-36 -134 159 0
-36 -159 134 0
-36 -135 160 0
-36 -160 135 0
15 16 35 0
15 16 36 0
15 35 36 0
16 35 36 0
-15 -16 -35 0
-15 -16 -36 0
-15 -35 -36 0
-16 -35 -36 0
16 39 40 0
136 137 138 139 140 0
-136 -137 0
-136 -138 0
-136 -139 0
-136 -140 0
-137 -138 0
-137 -139 0
-137 -140 0
-138 -139 0
-138 -140 0
-139 -140 0
-40 -136 161 0
-40 -161 136 0
-40 -137 162 0
-40 -162 137 0
-40 -138 163 0
-40 -163 138 0
-40 -139 164 0
-40 -164 139 0
-40 -140 165 0
-40 -165 140 0
137 0
-16 -39 0
-16 -40 0
-39 -40 0
17 24 0
141 142 143 144 145 0
-141 -142 0
-141 -143 0
-141 -144 0
-141 -145 0
-142 -143 0
-142 -144 0
-142 -145 0
-143 -144 0
-143 -145 0
-144 -145 0
-17 -141 146 0
-17 -146 141 0
-17 -142 147 0
-17 -147 142 0
-17 -143 148 0
-17 -148 143 0
-17 -144 149 0
-17 -149 144 0
-17 -145 150 0
-17 -150 145 0
24 0
17 0
18 28 17 0
146 147 148 149 150 0
-146 -147 0
-146 -148 0
-146 -149 0
-146 -150 0
-147 -148 0
-147 -149 0
-147 -150 0
-148 -149 0
-148 -150 0
-149 -150 0
-18 -146 151 0
-18 -151 146 0
-18 -147 152 0
-18 -152 147 0
-18 -148 153 0
-18 -153 148 0
-18 -149 154 0
-18 -154 149 0
-18 -150 155 0
-18 -155 150 0
150 0
-17 -18 0
-17 -28 0
-18 -28 0
19 32 18 0
151 152 153 154 155 0
-151 -152 0
-151 -153 0
-151 -154 0
-151 -155 0
-152 -153 0
-152 -154 0
-152 -155 0
-153 -154 0
-153 -155 0
-154 -155 0
-19 -151 156 0
-19 -156 151 0
-19 -152 157 0
-19 -157 152 0
-19 -153 158 0
-19 -158 153 0
-19 -154 159 0
-19 -159 154 0
-19 -155 160 0
-19 -160 155 0
-18 19 32 0
-19 18 32 0
-32 18 19 0
-18 -19 -32 0
20 36 19 0
156 157 158 159 160 0
-156 -157 0
-156 -158 0
-156 -159 0
-156 -160 0
-157 -158 0
-157 -159 0
-157 -160 0
-158 -159 0
-158 -160 0
-159 -160 0
-20 -156 161 0
-20 -161 156 0
-20 -157 162 0
-20 -162 157 0
-20 -158 163 0
-20 -163 158 0
-20 -159 164 0
-20 -164 159 0
-20 -160 165 0
-20 -165 160 0
-19 20 36 0
-20 19 36 0
-36 19 20 0
-19 -20 -36 0
20 40 0
161 162 163 164 165 0
-161 -162 0
-161 -163 0
-161 -164 0
-161 -165 0
-162 -163 0
-162 -164 0
-162 -165 0
-163 -164 0
-163 -165 0
-164 -165 0
161 0
-40 -20 0